;; sequence(s): A174972
;; terms: 1 3 20 576 278528 35433480192 299759591197780213760 10974106333200265446693831089674524819456 7439641733497565555964435786808198079572596514767406239535149772508418579365888
;; small program: ((1 + loop(x + x, x, 1)) * (loop(x * x, x, 2) div 2)) div 2
;; fast program: (loop2((x * y) * x, y + y, x - 1, 1, 2) * loop((x * x) + x, 1, loop(x + x, x, 1))) div 2
(set-logic UFNIA)
(define-fun divf ((a Int) (b Int)) Int (ite (< 0 b) (div a b) (div (- a) (- b))))
(declare-fun f0 (Int) Int)
(declare-fun g0 (Int) Int)
(declare-fun h0 () Int)
(declare-fun u0 (Int Int) Int)
(declare-fun v0 (Int) Int)
(declare-fun f1 (Int) Int)
(declare-fun g1 (Int) Int)
(declare-fun h1 () Int)
(declare-fun u1 (Int Int) Int)
(declare-fun v1 (Int) Int)
(declare-fun small (Int) Int)
(declare-fun f2 (Int Int) Int)
(declare-fun g2 (Int Int) Int)
(declare-fun h2 (Int) Int)
(declare-fun i2 () Int)
(declare-fun j2 () Int)
(declare-fun u2 (Int Int Int) Int)
(declare-fun v2 (Int Int Int) Int)
(declare-fun w2 (Int) Int)
(declare-fun f3 (Int) Int)
(declare-fun g3 () Int)
(declare-fun f4 (Int) Int)
(declare-fun g4 (Int) Int)
(declare-fun h4 () Int)
(declare-fun u4 (Int Int) Int)
(declare-fun v4 (Int) Int)
(declare-fun h3 (Int) Int)
(declare-fun u3 (Int Int) Int)
(declare-fun v3 (Int) Int)
(declare-fun fast (Int) Int)
(assert (forall ((x Int)) (= (f0 x) (+ x x))))
(assert (forall ((x Int)) (= (g0 x) x)))
(assert (= h0 1))
(assert (forall ((x Int) (y Int)) (= (u0 x y) (ite (<= x 0) y (f0 (u0 (- x 1) y))))))
(assert (forall ((x Int)) (= (v0 x) (u0 (g0 x) h0))))
(assert (forall ((x Int)) (= (f1 x) (* x x))))
(assert (forall ((x Int)) (= (g1 x) x)))
(assert (= h1 2))
(assert (forall ((x Int) (y Int)) (= (u1 x y) (ite (<= x 0) y (f1 (u1 (- x 1) y))))))
(assert (forall ((x Int)) (= (v1 x) (u1 (g1 x) h1))))
(assert (forall ((x Int)) (= (small x) (divf (* (+ 1 (v0 x)) (divf (v1 x) 2)) 2))))
(assert (forall ((x Int) (y Int)) (= (f2 x y) (* (* x y) x))))
(assert (forall ((x Int) (y Int)) (= (g2 x y) (+ y y))))
(assert (forall ((x Int)) (= (h2 x) (- x 1))))
(assert (= i2 1))
(assert (= j2 2))
(assert (forall ((x Int) (y Int) (z Int)) (= (u2 x y z) (ite (<= x 0) y (f2 (u2 (- x 1) y z) (v2 (- x 1) y z))))))
(assert (forall ((x Int) (y Int) (z Int)) (= (v2 x y z) (ite (<= x 0) z (g2 (u2 (- x 1) y z) (v2 (- x 1) y z))))))
(assert (forall ((x Int)) (= (w2 x) (u2 (h2 x) i2 j2))))
(assert (forall ((x Int)) (= (f3 x) (+ (* x x) x))))
(assert (= g3 1))
(assert (forall ((x Int)) (= (f4 x) (+ x x))))
(assert (forall ((x Int)) (= (g4 x) x)))
(assert (= h4 1))
(assert (forall ((x Int) (y Int)) (= (u4 x y) (ite (<= x 0) y (f4 (u4 (- x 1) y))))))
(assert (forall ((x Int)) (= (v4 x) (u4 (g4 x) h4))))
(assert (forall ((x Int)) (= (h3 x) (v4 x))))
(assert (forall ((x Int) (y Int)) (= (u3 x y) (ite (<= x 0) y (f3 (u3 (- x 1) y))))))
(assert (forall ((x Int)) (= (v3 x) (u3 g3 (h3 x)))))
(assert (forall ((x Int)) (= (fast x) (divf (* (w2 x) (v3 x)) 2))))
(assert (exists ((c Int)) (and (>= c 0) (not (= (small c) (fast c))))))
(check-sat)
